c c17
p cnf 13 27
1 2 0
1 3 0
1 4 0
-1 -2 -3 -4 0
-5 -3 0
-5 -4 0
5 3 4 0
6 -7 0
6 -5 0
-6 7 5 0
-8 5 0
-8 9 0
8 -5 -9 0
-10 -6 -1 0
-10 6 1 0
10 -6 1 0
10 6 -1 0
-12 -8 -6 0
-12 8 6 0
12 -8 6 0
12 8 -6 0
-13 -1 -12 0
-13 1 12 0
13 -1 12 0
13 1 -12 0
11 13 0
-11 -13 0
